(declare-const BAV1 Bool)
(declare-const BAV2 Bool)
(declare-const BAV3 Bool)
(declare-const GEN3 Int)
(declare-const GEN2 Int)
(declare-const GEN1 Int)
(set-option :auto-config true)
(declare-const x Int)
(declare-const y Int)
(assert (>= (+ (* x x) (* y y)) GEN1))
(assert (> x GEN2))
(assert (> y GEN3))
(assert (= BAV1 (>= (+ (* x x) (* y y)) GEN1)))
(assert (= BAV2 (> x GEN2)))
(assert (= BAV3 (> y GEN3)))
(check-sat)
(get-model)